CPXPARAM_TimeLimit                               3600
CPXPARAM_Read_DataCheck                          1
Parallel mode: deterministic, using up to 8 threads for concurrent optimization.
Tried aggregator 1 time.
No LP presolve or aggregator reductions.
Presolve time = 0.00 sec. (2.35 ticks)

Iteration log . . .
Iteration:     1   Dual objective     =           990.000000
Perturbation started.
Iteration:   101   Dual objective     =           990.000000
Iteration:   222   Dual objective     =           990.015272
Iteration:   436   Dual objective     =           990.023829
Iteration:   658   Dual objective     =           990.023833
Iteration:   882   Dual objective     =           990.023836
Iteration:  1105   Dual objective     =           990.023838
Iteration:  1336   Dual objective     =           990.023840
Iteration:  1576   Dual objective     =           990.023842
Iteration:  1806   Dual objective     =           990.023842
Removing perturbation.

Dual simplex solved model.

